
Gurobi 7.5.1 (win64, Python) logging started 10/25/17 01:44:35


Gurobi 7.5.1 (win64, Python) logging started 10/25/17 01:48:36


Gurobi 7.5.1 (win64, Python) logging started 10/25/17 01:49:47


Gurobi 7.5.1 (win64, Python) logging started 10/25/17 01:51:12


Gurobi 7.5.1 (win64, Python) logging started 10/25/17 01:51:58


Gurobi 7.5.1 (win64, Python) logging started 10/25/17 01:53:13


Gurobi 7.5.1 (win64, Python) logging started 10/25/17 01:53:55


Gurobi 7.5.1 (win64, Python) logging started 10/25/17 02:10:13


Gurobi 7.5.1 (win64, Python) logging started 10/25/17 02:10:48


Gurobi 7.5.1 (win64, Python) logging started 10/25/17 02:17:37


Gurobi 7.5.1 (win64, Python) logging started 10/25/17 02:17:58


Gurobi 7.5.1 (win64, Python) logging started 10/25/17 02:19:09


Gurobi 7.5.1 (win64, Python) logging started 10/25/17 02:19:21


Gurobi 7.5.1 (win64, Python) logging started 10/25/17 02:19:57


Gurobi 7.5.1 (win64, Python) logging started 10/25/17 02:20:15


Gurobi 7.5.1 (win64, Python) logging started 10/25/17 02:21:36


Gurobi 7.5.1 (win64, Python) logging started 10/25/17 02:26:49


Gurobi 7.5.1 (win64, Python) logging started 10/25/17 02:27:39


Gurobi 7.5.1 (win64, Python) logging started 10/25/17 02:28:53


Gurobi 7.5.1 (win64, Python) logging started 10/25/17 02:29:15


Gurobi 7.5.1 (win64, Python) logging started 10/25/17 02:29:24


Gurobi 7.5.1 (win64, Python) logging started 10/25/17 02:34:56


Gurobi 7.5.1 (win64, Python) logging started 10/25/17 02:35:41


Gurobi 7.5.1 (win64, Python) logging started 10/25/17 02:36:23


Gurobi 7.5.1 (win64, Python) logging started 10/25/17 02:52:30


Gurobi 7.5.1 (win64, Python) logging started 10/25/17 02:53:19


Gurobi 7.5.1 (win64, Python) logging started 10/25/17 02:55:29


Gurobi 7.5.1 (win64, Python) logging started 10/25/17 02:55:53


Gurobi 7.5.1 (win64, Python) logging started 10/25/17 02:56:33


Gurobi 7.5.1 (win64, Python) logging started 10/25/17 02:57:03


Gurobi 7.5.1 (win64, Python) logging started 10/25/17 02:57:20


Gurobi 7.5.1 (win64, Python) logging started 10/25/17 02:58:10


Gurobi 7.5.1 (win64, Python) logging started 10/25/17 02:58:36


Gurobi 7.5.1 (win64, Python) logging started 10/25/17 04:48:45


Gurobi 7.5.1 (win64, Python) logging started 10/25/17 04:51:00


Gurobi 7.5.1 (win64, Python) logging started 10/25/17 04:51:17


Gurobi 7.5.1 (win64, Python) logging started 10/25/17 04:53:08


Gurobi 7.5.1 (win64, Python) logging started 10/25/17 04:54:25


Gurobi 7.5.1 (win64, Python) logging started 10/25/17 04:57:04


Gurobi 7.5.1 (win64, Python) logging started 10/25/17 04:57:37


Gurobi 7.5.1 (win64, Python) logging started 10/25/17 04:58:45


Gurobi 7.5.1 (win64, Python) logging started 10/25/17 05:03:52


Gurobi 7.5.1 (win64, Python) logging started 10/25/17 05:04:20


Gurobi 7.5.1 (win64, Python) logging started 10/25/17 05:20:28


Gurobi 7.5.1 (win64, Python) logging started 10/25/17 05:22:35


Gurobi 7.5.1 (win64, Python) logging started 10/25/17 05:23:39


Gurobi 7.5.1 (win64, Python) logging started 10/25/17 05:24:22


Gurobi 7.5.1 (win64, Python) logging started 10/25/17 05:26:25


Gurobi 7.5.1 (win64, Python) logging started 10/25/17 05:31:45


Gurobi 7.5.1 (win64, Python) logging started 10/25/17 05:34:10


Gurobi 7.5.1 (win64, Python) logging started 10/25/17 05:35:10


Gurobi 7.5.1 (win64, Python) logging started 10/25/17 05:36:02


Gurobi 7.5.1 (win64, Python) logging started 10/25/17 05:36:45


Gurobi 7.5.1 (win64, Python) logging started 10/25/17 05:38:48


Gurobi 7.5.1 (win64, Python) logging started 10/25/17 05:39:40


Gurobi 7.5.1 (win64, Python) logging started 10/25/17 05:40:26


Gurobi 7.5.1 (win64, Python) logging started 10/25/17 05:40:47


Gurobi 7.5.1 (win64, Python) logging started 10/25/17 05:54:51


Gurobi 7.5.1 (win64, Python) logging started 10/25/17 05:55:33


Gurobi 7.5.1 (win64, Python) logging started 10/25/17 05:57:22


Gurobi 7.5.1 (win64, Python) logging started 10/25/17 05:57:46


Gurobi 7.5.1 (win64, Python) logging started 10/25/17 06:15:14


Gurobi 7.5.1 (win64, Python) logging started 10/25/17 06:15:54


Gurobi 7.5.1 (win64, Python) logging started 10/25/17 06:17:15


Gurobi 7.5.1 (win64, Python) logging started 10/25/17 06:19:42


Gurobi 7.5.1 (win64, Python) logging started 10/25/17 06:22:15


Gurobi 7.5.1 (win64, Python) logging started 10/25/17 06:22:42


Gurobi 7.5.1 (win64, Python) logging started 10/25/17 06:24:53


Gurobi 7.5.1 (win64, Python) logging started 10/25/17 06:25:24


Gurobi 7.5.1 (win64, Python) logging started 10/25/17 06:26:46


Gurobi 7.5.1 (win64, Python) logging started 10/25/17 06:27:25


Gurobi 7.5.1 (win64, Python) logging started 10/25/17 06:33:14


Gurobi 7.5.1 (win64, Python) logging started 10/25/17 06:44:10


Gurobi 7.5.1 (win64, Python) logging started 10/25/17 06:45:47


Gurobi 7.5.1 (win64, Python) logging started 10/25/17 06:48:26


Gurobi 7.5.1 (win64, Python) logging started 10/25/17 06:48:57


Gurobi 7.5.1 (win64, Python) logging started 10/25/17 06:50:37


Gurobi 7.5.1 (win64, Python) logging started 10/25/17 07:37:46


Gurobi 7.5.1 (win64, Python) logging started 10/25/17 07:37:54


Gurobi 7.5.1 (win64, Python) logging started 10/25/17 07:38:15


Gurobi 7.5.1 (win64, Python) logging started 10/25/17 07:38:48


Gurobi 7.5.1 (win64, Python) logging started 10/25/17 07:40:15


Gurobi 7.5.1 (win64, Python) logging started 10/25/17 07:40:31


Gurobi 7.5.1 (win64, Python) logging started 10/25/17 07:49:27


Gurobi 7.5.1 (win64, Python) logging started 10/25/17 07:55:16


Gurobi 7.5.1 (win64, Python) logging started 10/25/17 07:56:31


Gurobi 7.5.1 (win64, Python) logging started 10/25/17 08:03:12


Gurobi 7.5.1 (win64, Python) logging started 10/25/17 08:03:42


Gurobi 7.5.1 (win64, Python) logging started 10/25/17 08:04:06


Gurobi 7.5.1 (win64, Python) logging started 10/25/17 08:04:53


Gurobi 7.5.1 (win64, Python) logging started 10/25/17 08:06:34


Gurobi 7.5.1 (win64, Python) logging started 10/25/17 08:06:58


Gurobi 7.5.1 (win64, Python) logging started 10/25/17 19:43:19


Gurobi 7.5.1 (win64, Python) logging started 10/25/17 19:48:53


Gurobi 7.5.1 (win64, Python) logging started 10/25/17 20:09:53


Gurobi 7.5.1 (win64, Python) logging started 10/25/17 20:10:28


Gurobi 7.5.1 (win64, Python) logging started 11/07/17 03:28:33


Gurobi 7.5.1 (win64, Python) logging started 11/07/17 03:29:56


Gurobi 7.5.1 (win64, Python) logging started 11/07/17 04:40:40


Gurobi 7.5.1 (win64, Python) logging started 11/07/17 04:41:08


Gurobi 7.5.1 (win64, Python) logging started 11/07/17 18:55:04


Gurobi 7.5.1 (win64, Python) logging started 11/07/17 18:56:47


Gurobi 7.5.1 (win64, Python) logging started 11/07/17 18:57:23


Gurobi 7.5.1 (win64, Python) logging started 11/07/17 19:07:33


Gurobi 7.5.1 (win64, Python) logging started 11/07/17 19:08:06


Gurobi 7.5.1 (win64, Python) logging started 11/07/17 19:10:05


Gurobi 7.5.1 (win64, Python) logging started 11/07/17 19:14:00

